\ This file has been generated by DOcplex
\ ENCODING=ISO-8859-1
\Problem name: dectiger problem

Minimize
 obj: V
Subject To
 c1: V + 78.514843750000 a1_u0_x0 + 134.562500000000 a1_u1_x0
     + 79.562500000000 a1_u2_x0 + 67.141406250000 a1_u0_x1
     + 61.437500000000 a1_u1_x1 + 116.437500000000 a1_u2_x1 >= 0
 c2: V + 134.562500000000 a1_u0_x0 + 109.062500000000 a1_u1_x0
     + 134.062500000000 a1_u2_x0 + 61.437500000000 a1_u0_x1
     + 55.937500000000 a1_u1_x1 + 115.937500000000 a1_u2_x1 >= 0
 c3: V + 79.562500000000 a1_u0_x0 + 134.062500000000 a1_u1_x0
     + 74.062500000000 a1_u2_x0 + 116.437500000000 a1_u0_x1
     + 115.937500000000 a1_u1_x1 + 90.937500000000 a1_u2_x1 >= 0
 c4: a1_u0_x0 + a1_u1_x0 + a1_u2_x0 = 1
 c5: a1_u0_x1 + a1_u1_x1 + a1_u2_x1 = 1

Bounds
       V Free
End
